222 5
10 10 10 10 10 

0 0 0 0 0 0 2 2 14 
0 0 0 0 0 0 6 3 4 5 7 8 12 
1 0 10 0 0 0 2 11 9 
4 0 10 0 0 0 3 10 9 200 
9 0 8 0 0 0 1 6 
6 0 7 0 0 0 1 9 
10 0 7 0 0 0 1 11 
5 0 10 0 0 0 1 10 
6 0 2 0 0 0 1 13 
2 0 10 0 0 0 1 13 
7 0 4 0 0 0 1 13 
5 0 7 0 0 0 1 13 
0 0 0 0 0 0 2 66 108 
0 0 0 0 0 0 3 15 17 18 
9 3 1 1 4 1 3 20 19 16 
1 6 5 5 9 10 6 29 25 24 23 22 21 
1 10 10 6 6 8 3 25 22 19 
5 10 10 10 10 8 2 22 19 
8 8 7 7 5 7 4 29 28 23 21 
6 8 9 5 4 4 3 29 22 21 
6 8 8 10 4 7 3 31 30 26 
9 6 7 6 4 5 3 33 28 27 
7 4 9 8 10 8 3 33 31 27 
3 7 8 10 10 8 4 38 35 33 31 
1 5 8 6 10 8 3 33 32 30 
7 7 7 10 9 10 3 35 33 32 
9 9 9 9 9 5 2 35 30 
7 7 8 9 8 10 2 32 30 
8 10 7 9 8 7 2 33 30 
1 5 5 8 10 4 3 38 36 34 
5 10 8 10 7 7 1 32 
6 6 10 6 8 8 2 37 34 
1 7 10 9 8 10 2 40 36 
10 7 10 7 7 8 3 41 40 39 
5 10 9 7 10 7 3 41 40 39 
10 7 10 10 8 5 1 37 
9 9 7 7 10 5 2 41 39 
3 10 6 8 6 10 3 41 40 141 
1 9 6 9 4 10 4 47 45 44 43 
5 6 8 6 6 9 4 47 45 43 42 
6 10 4 8 10 5 3 47 45 42 
9 10 8 8 10 10 2 49 46 
4 6 8 4 4 7 2 49 46 
9 9 9 5 7 9 2 49 46 
3 6 7 10 7 10 1 46 
10 7 10 3 5 5 5 64 63 52 51 48 
4 8 10 6 6 10 4 64 63 51 48 
6 8 5 5 7 8 3 60 53 50 
9 10 3 6 8 6 3 63 60 50 
5 5 6 6 4 8 7 62 59 58 57 56 55 54 
7 6 10 10 9 10 4 61 59 58 54 
1 9 8 7 9 9 4 60 57 56 54 
3 8 7 7 6 9 2 61 55 
6 8 6 8 7 10 1 65 
8 7 7 10 8 10 1 65 
2 8 3 6 9 4 1 65 
3 10 7 9 7 10 1 65 
4 6 9 10 8 3 1 65 
4 8 8 6 10 6 1 65 
10 7 7 8 9 8 1 65 
3 10 6 9 6 10 1 65 
2 3 10 8 8 7 1 65 
5 7 10 10 10 6 1 65 
10 5 5 8 7 6 1 65 
0 0 0 0 0 0 1 222 
0 0 0 0 0 0 4 67 69 70 73 
9 0 3 4 2 4 4 76 75 72 68 
2 0 5 9 9 9 2 77 71 
5 0 6 8 8 7 5 106 83 78 77 74 
2 0 10 10 8 10 5 83 82 80 78 74 
4 0 10 2 5 8 5 106 83 82 78 74 
8 0 10 8 9 7 9 95 90 86 85 83 82 81 80 193 
10 0 10 3 6 9 3 79 76 75 
6 0 9 10 9 10 8 95 94 89 87 86 85 84 79 
6 0 4 9 6 5 4 95 89 88 77 
7 0 6 9 10 10 7 94 90 89 87 86 85 82 
9 0 10 9 8 10 4 90 87 84 82 
4 0 5 6 8 7 4 94 93 89 88 
8 0 9 8 8 10 3 93 90 88 
3 0 10 6 5 4 3 106 93 84 
7 0 7 5 6 3 3 94 89 87 
3 0 9 7 6 7 4 100 99 96 91 
6 0 6 4 9 10 2 93 88 
8 0 8 5 5 7 3 105 99 91 
10 0 5 8 10 10 3 105 100 91 
10 0 6 5 7 6 3 105 99 91 
5 0 7 7 8 6 3 105 99 92 
9 0 7 9 4 9 2 105 91 
1 0 7 6 8 5 4 105 104 99 97 
9 0 7 10 10 8 3 103 99 96 
6 0 7 9 6 8 1 92 
1 0 8 6 5 7 3 104 98 97 
10 0 10 10 9 10 3 104 100 98 
9 0 5 8 10 8 2 103 96 
7 0 5 10 9 9 1 96 
4 0 6 4 8 9 4 105 104 102 101 
6 0 7 10 8 8 2 103 101 
6 0 6 9 10 7 2 102 101 
3 0 9 9 5 9 2 102 101 
4 0 5 5 5 6 1 103 
2 0 10 10 8 5 1 107 
3 0 9 10 9 6 1 107 
2 0 10 10 9 4 1 107 
10 0 10 7 9 10 1 107 
7 0 9 6 8 7 1 107 
5 0 8 10 8 6 1 107 
0 0 0 0 0 0 1 222 
0 0 0 0 0 0 5 109 110 111 114 118 
6 2 0 0 0 0 2 113 112 
6 2 0 0 0 0 2 115 112 
1 10 0 0 0 0 2 117 115 
10 10 0 0 0 0 1 116 
7 8 0 0 0 0 1 115 
10 10 0 0 0 0 2 115 139 
3 7 0 0 0 0 1 119 
4 8 0 0 0 0 1 119 
6 8 0 0 0 0 1 119 
10 10 0 0 0 0 1 119 
0 0 0 0 0 0 2 120 152 
0 0 0 0 0 0 7 121 123 126 127 130 149 150 
7 6 4 4 0 0 4 142 134 124 122 
9 6 9 7 0 0 3 141 135 125 
4 6 10 4 0 0 5 148 147 143 137 128 
6 8 8 3 0 0 4 145 144 137 128 
1 6 8 7 0 0 2 137 128 
10 10 7 10 0 0 6 146 143 140 137 136 134 
2 10 6 6 0 0 5 143 142 138 137 131 
2 5 8 3 0 0 3 138 133 129 
2 10 6 8 0 0 1 131 
5 8 10 10 0 0 2 144 142 
8 5 7 9 0 0 1 132 
1 8 10 6 0 0 1 136 
7 10 8 8 0 0 1 139 
7 10 2 9 0 0 1 141 
4 10 8 6 0 0 1 140 
10 8 6 10 0 0 1 151 
3 6 6 10 0 0 1 151 
9 9 5 9 0 0 1 151 
7 9 8 6 0 0 1 151 
7 5 10 8 0 0 1 151 
7 10 7 10 0 0 1 151 
7 6 10 10 0 0 1 151 
9 8 6 5 0 0 1 151 
9 3 9 8 0 0 1 151 
8 7 5 10 0 0 1 151 
1 8 7 9 0 0 1 151 
8 8 9 9 0 0 1 151 
1 4 10 9 0 0 1 151 
3 8 8 8 0 0 1 151 
1 8 8 4 0 0 1 151 
0 0 0 0 0 0 1 222 
0 0 0 0 0 0 3 153 154 158 
10 0 0 0 4 0 3 157 156 155 
5 0 0 0 7 0 3 162 157 156 
2 0 0 0 10 0 4 162 161 160 159 
7 0 0 0 7 0 2 161 159 
4 0 0 0 10 0 2 160 159 
10 0 0 0 9 0 2 160 159 
3 0 0 0 4 0 1 163 
5 0 0 0 5 0 1 163 
3 0 0 0 9 0 1 163 
8 0 0 0 10 0 1 163 
0 0 0 0 0 0 2 164 176 
0 0 0 0 0 0 3 165 166 174 
4 0 0 0 0 2 4 173 172 168 167 
7 0 0 0 0 10 2 168 167 
9 0 0 0 0 6 3 171 170 169 
5 0 0 0 0 8 1 169 
3 0 0 0 0 9 1 175 
3 0 0 0 0 4 1 175 
10 0 0 0 0 7 1 175 
9 0 0 0 0 10 1 175 
3 0 0 0 0 9 1 175 
3 0 0 0 0 10 1 175 
0 0 0 0 0 0 2 198 210 
0 0 0 0 0 0 4 177 178 179 180 
8 4 4 0 0 0 5 189 187 185 184 183 
10 8 9 0 0 0 4 187 183 182 181 
10 3 9 0 0 0 3 187 183 181 
7 10 9 0 0 0 3 185 182 181 
10 10 6 0 0 0 4 190 189 188 186 
10 5 4 0 0 0 4 190 189 188 186 
7 10 7 0 0 0 3 190 188 186 
7 9 10 0 0 0 2 188 186 
4 7 10 0 0 0 4 196 192 191 190 
5 10 9 0 0 0 5 196 195 194 192 191 
10 9 4 0 0 0 5 196 195 194 192 191 
8 3 6 0 0 0 3 195 194 191 
7 8 10 0 0 0 3 196 192 191 
4 9 10 0 0 0 3 195 194 193 
4 7 8 0 0 0 1 193 
9 10 5 0 0 0 1 193 
2 10 6 0 0 0 1 197 
7 7 5 0 0 0 1 197 
7 5 9 0 0 0 1 197 
4 6 10 0 0 0 1 197 
0 0 0 0 0 0 1 222 
0 0 0 0 0 0 6 199 200 202 203 204 205 
3 0 0 0 0 5 2 206 201 
7 0 0 0 0 9 2 208 206 
7 0 0 0 0 6 1 207 
7 0 0 0 0 7 1 207 
10 0 0 0 0 4 1 207 
6 0 0 0 0 8 1 206 
7 0 0 0 0 10 1 206 
10 0 0 0 0 6 1 209 
2 0 0 0 0 10 1 209 
5 0 0 0 0 10 1 209 
0 0 0 0 0 0 1 222 
0 0 0 0 0 0 5 211 212 213 215 220 
8 0 5 0 0 0 3 219 218 214 
4 0 10 0 0 0 3 218 217 216 
6 0 7 0 0 0 2 217 216 
9 0 7 0 0 0 1 216 
3 0 6 0 0 0 1 216 
2 0 10 0 0 0 1 221 
8 0 6 0 0 0 1 221 
8 0 9 0 0 0 1 221 
6 0 5 0 0 0 1 221 
9 0 10 0 0 0 1 221 
0 0 0 0 0 0 1 222 
0 0 0 0 0 0 0 
